/*********************************************
 * OPL 12.8.0.0 Data
 * Author: root
 * Creation Date: 1/5/2019 at 20:03:00
 *********************************************/

PRODUCTOS = {"A", "B", "C"};
PRECIO = [ 50, 40, 30 ];
RECURSOS = {"1", "2", "3"};
DISPONIBILIDAD = [ 160, 180, 110 ];
CONSUMO = [
[0.8, 0.8, 0.3]
[0.6, 1.2, 0.0]
[0.6, 1.0, 0.6]
];
CON_DEMANDA_MINIMA = {"B"};
CON_DEMANDA_MAXIMA = {"A", "B"};
DEMANDA_MINIMA = [ 80 ];
DEMANDA_MAXIMA = [ 100, 120 ];